[2026-03-23T16:09:01.298Z] Pipeline "set_ds_1_ds_1_s000_g002" → 2026_03_23_16_09_01_set_ds_1_ds_1_s000_g002_max.sol
Set parameter WLSAccessID
Set parameter WLSSecret
Set parameter LicenseID to value 2792458
Set parameter LogFile to value "gurobi.log"
Using license file /root/gurobi.lic
Academic license 2792458 - for non-commercial use only - registered to an___@studenti.unipg.it

Gurobi Optimizer version 13.0.1 build v13.0.1rc0 (linux64 - "Ubuntu 24.04.4 LTS")
Copyright (c) 2026, Gurobi Optimization, LLC

Warning: Duplicate section found (read 'binary') - Is a variable name equal to an LP file format keyword?
Warning: Duplicate section found (read 'binary') - Is a variable name equal to an LP file format keyword?
Warning: Duplicate section found (read 'binary') - Is a variable name equal to an LP file format keyword?
Warning: Duplicate section found (read 'binary') - Is a variable name equal to an LP file format keyword?
Warning: Duplicate section found (read 'binary') - Is a variable name equal to an LP file format keyword?
Warning: Duplicate section found (read 'binary') - Is a variable name equal to an LP file format keyword?
Warning: Duplicate section found (read 'binary') - Is a variable name equal to an LP file format keyword?
Warning: Duplicate section found (read 'binary') - Is a variable name equal to an LP file format keyword?
Warning: Duplicate section found (read 'binary') - Is a variable name equal to an LP file format keyword?
Warning: Duplicate section found (read 'binary') - Is a variable name equal to an LP file format keyword?
Warning: Further warnings of this type will be omitted.
Read LP format model from file /root/bgw/data/uploads/2026_03_23_16_09_01_set_ds_1_ds_1_s000_g002_max.lp
Reading time = 0.00 seconds
: 707 rows, 135 columns, 1855 nonzeros

Using Gurobi shared library /opt/gurobi1301/linux64/lib/libgurobi.so.13.0.1

CPU model: AMD EPYC-Genoa Processor, instruction set [SSE2|AVX|AVX2|AVX512]
Thread count: 16 physical cores, 16 logical processors, using up to 16 threads

Academic license 2792458 - for non-commercial use only - registered to an___@studenti.unipg.it
Optimize a model with 707 rows, 135 columns and 1855 nonzeros (Max)
Model fingerprint: 0x8fcec54c
Model has 37 linear objective coefficients
Variable types: 47 continuous, 88 integer (88 binary)
Coefficient statistics:
  Matrix range     [1e+00, 1e+01]
  Objective range  [1e+00, 1e+00]
  Bounds range     [1e+00, 1e+00]
  RHS range        [1e+00, 1e+01]

Found heuristic solution: objective 37.0000000
Presolve removed 409 rows and 56 columns
Presolve time: 0.00s
Presolved: 298 rows, 79 columns, 964 nonzeros
Variable types: 0 continuous, 79 integer (69 binary)
Found heuristic solution: objective 66.0000000

Root relaxation: objective 1.950000e+02, 73 iterations, 0.00 seconds (0.00 work units)

    Nodes    |    Current Node    |     Objective Bounds      |     Work
 Expl Unexpl |  Obj  Depth IntInf | Incumbent    BestBd   Gap | It/Node Time

     0     0  195.00000    0   50   66.00000  195.00000   195%     -    0s
H    0     0                      75.0000000  195.00000   160%     -    0s
H    0     0                      79.0000000  195.00000   147%     -    0s
H    0     0                      80.0000000  195.00000   144%     -    0s
H    0     0                      85.0000000  195.00000   129%     -    0s
     0     0  195.00000    0   54   85.00000  195.00000   129%     -    0s
H    0     0                      88.0000000  195.00000   122%     -    0s
     0     0  195.00000    0   51   88.00000  195.00000   122%     -    0s
     0     0  195.00000    0   50   88.00000  195.00000   122%     -    0s
H    0     0                      91.0000000  195.00000   114%     -    0s
H    0     0                      92.0000000  195.00000   112%     -    0s
     0     0  195.00000    0   49   92.00000  195.00000   112%     -    0s
     0     0  195.00000    0   49   92.00000  195.00000   112%     -    0s
     0     0  195.00000    0   53   92.00000  195.00000   112%     -    0s
     0     0  195.00000    0   53   92.00000  195.00000   112%     -    0s
     0     0  194.00000    0   55   92.00000  194.00000   111%     -    0s
     0     0  194.00000    0   48   92.00000  194.00000   111%     -    0s
     0     0  192.81250    0   54   92.00000  192.81250   110%     -    0s
     0     0  192.81250    0   48   92.00000  192.81250   110%     -    0s
     0     0  192.50000    0   48   92.00000  192.50000   109%     -    0s
     0     0  192.50000    0   48   92.00000  192.50000   109%     -    0s
H    0     0                      96.0000000  192.00000   100%     -    0s
     0     2  192.00000    0   48   96.00000  192.00000   100%     -    0s
H   36    41                      97.0000000  192.00000  97.9%  27.6    0s
H  143   144                      98.0000000  192.00000  95.9%  22.3    0s

Cutting planes:
  Gomory: 1
  Flow cover: 1
  Inf proof: 3

Explored 158466 nodes (1294602 simplex iterations) in 4.95 seconds (3.86 work units)
Thread count was 16 (of 16 available processors)

Solution count 10: 98 97 96 ... 75

Optimal solution found (tolerance 1.00e-04)
Best objective 9.800000000000e+01, best bound 9.800000000000e+01, gap 0.0000%

Wrote result file '/root/bgw/data/results/2026_03_23_16_09_01_set_ds_1_ds_1_s000_g002_max.sol'

